objective value:                                10644
t_x_0                                               1 	(obj:11)
t_x_2                                               1 	(obj:21)
t_x_3                                               1 	(obj:30)
t_x_5                                               1 	(obj:38)
t_x_6                                               1 	(obj:71)
t_x_10                                              1 	(obj:22)
t_x_11                                              1 	(obj:14)
t_x_12                                              1 	(obj:1)
t_x_14                                              1 	(obj:7)
t_x_16                                              1 	(obj:18)
t_x_17                                              1 	(obj:40)
t_x_23                                              1 	(obj:41)
t_x_24                                              1 	(obj:22)
t_x_26                                              1 	(obj:19)
t_x_28                                              1 	(obj:11)
t_x_30                                              1 	(obj:27)
t_x_33                                              1 	(obj:29)
t_x_34                                              1 	(obj:24)
t_x_38                                              1 	(obj:38)
t_x_39                                              1 	(obj:5)
t_x_40                                              1 	(obj:39)
t_x_41                                              1 	(obj:12)
t_x_42                                              1 	(obj:39)
t_x_45                                              1 	(obj:23)
t_x_46                                              1 	(obj:17)
t_x_48                                              1 	(obj:10)
t_x_53                                              1 	(obj:0)
t_x_54                                              1 	(obj:10)
t_x_55                                              1 	(obj:8)
t_x_57                                              1 	(obj:41)
t_x_58                                              1 	(obj:5)
t_x_59                                              1 	(obj:19)
t_x_62                                              1 	(obj:39)
t_x_64                                              1 	(obj:11)
t_x_66                                              1 	(obj:8)
t_x_68                                              1 	(obj:27)
t_x_69                                              1 	(obj:33)
t_x_71                                              1 	(obj:35)
t_x_73                                              1 	(obj:31)
t_x_74                                              1 	(obj:14)
t_x_76                                              1 	(obj:13)
t_x_77                                              1 	(obj:18)
t_x_78                                              1 	(obj:35)
t_x_79                                              1 	(obj:4)
t_x_80                                              1 	(obj:27)
t_x_81                                              1 	(obj:1)
t_x_82                                              1 	(obj:7)
t_x_84                                              1 	(obj:81)
t_x_86                                              1 	(obj:33)
t_x_90                                              1 	(obj:0)
t_x_92                                              1 	(obj:13)
t_x_93                                              1 	(obj:17)
t_x_94                                              1 	(obj:15)
t_x_97                                              1 	(obj:9)
t_x_104                                             1 	(obj:34)
t_x_106                                             1 	(obj:13)
t_x_108                                             1 	(obj:13)
t_x_110                                             1 	(obj:1)
t_x_114                                             1 	(obj:9)
t_x_127                                             1 	(obj:29)
t_x_129                                             1 	(obj:43)
t_x_133                                             1 	(obj:25)
t_x_135                                             1 	(obj:35)
t_x_139                                             1 	(obj:8)
t_x_141                                             1 	(obj:18)
t_x_143                                             1 	(obj:6)
t_x_144                                             1 	(obj:2)
t_x_151                                             1 	(obj:8)
t_x_152                                             1 	(obj:9)
t_x_156                                             1 	(obj:27)
t_x_158                                             1 	(obj:1)
t_x_161                                             1 	(obj:10)
t_x_167                                             1 	(obj:4)
t_x_168                                             1 	(obj:10)
t_x_170                                             1 	(obj:25)
t_x_182                                             1 	(obj:24)
t_x_184                                             1 	(obj:30)
t_x_186                                             1 	(obj:12)
t_x_188                                             1 	(obj:40)
t_x_190                                             1 	(obj:2)
t_x_192                                             1 	(obj:19)
t_x_193                                             1 	(obj:21)
t_x_195                                             1 	(obj:3)
t_x_199                                             1 	(obj:7)
t_x_202                                             1 	(obj:20)
t_x_203                                             1 	(obj:23)
t_x_205                                             1 	(obj:20)
t_x_206                                             1 	(obj:56)
t_x_207                                             1 	(obj:6)
t_x_210                                             1 	(obj:10)
t_x_218                                             1 	(obj:3)
t_x_221                                             1 	(obj:6)
t_x_224                                             1 	(obj:16)
t_x_230                                             1 	(obj:9)
t_x_233                                             1 	(obj:33)
t_x_236                                             1 	(obj:25)
t_x_240                                             1 	(obj:27)
t_x_242                                             1 	(obj:56)
t_x_244                                             1 	(obj:2)
t_x_248                                             1 	(obj:8)
t_x_249                                             1 	(obj:27)
t_x_255                                             1 	(obj:7)
t_x_259                                             1 	(obj:6)
t_x_262                                             1 	(obj:7)
t_x_268                                             1 	(obj:21)
t_x_271                                             1 	(obj:10)
t_x_274                                             1 	(obj:29)
t_x_281                                             1 	(obj:2)
t_x_283                                             1 	(obj:21)
t_x_288                                             1 	(obj:47)
t_x_291                                             1 	(obj:23)
t_x_296                                             1 	(obj:30)
t_x_303                                             1 	(obj:19)
t_x_306                                             1 	(obj:0)
t_x_307                                             1 	(obj:12)
t_x_313                                             1 	(obj:8)
t_x_316                                             1 	(obj:21)
t_x_323                                             1 	(obj:12)
t_x_328                                             1 	(obj:17)
t_x_329                                             1 	(obj:5)
t_x_331                                             1 	(obj:15)
t_x_333                                             1 	(obj:34)
t_x_334                                             1 	(obj:32)
t_x_339                                             1 	(obj:3)
t_x_341                                             1 	(obj:11)
t_x_343                                             1 	(obj:20)
t_x_344                                             1 	(obj:3)
t_x_356                                             1 	(obj:12)
t_x_358                                             1 	(obj:24)
t_x_360                                             1 	(obj:21)
t_x_361                                             1 	(obj:6)
t_x_363                                             1 	(obj:2)
t_x_364                                             1 	(obj:37)
t_x_367                                             1 	(obj:2)
t_x_371                                             1 	(obj:18)
t_x_372                                             1 	(obj:1)
t_x_383                                             1 	(obj:1)
t_x_384                                             1 	(obj:4)
t_x_385                                             1 	(obj:3)
t_x_388                                             1 	(obj:2)
t_x_390                                             1 	(obj:2)
t_x_392                                             1 	(obj:5)
t_x_395                                             1 	(obj:1)
t_x_397                                             1 	(obj:22)
t_x_398                                             1 	(obj:12)
t_x_403                                             1 	(obj:19)
t_x_405                                             1 	(obj:4)
t_x_406                                             1 	(obj:9)
t_x_408                                             1 	(obj:3)
t_x_419                                             1 	(obj:0)
t_x_420                                             1 	(obj:26)
t_x_423                                             1 	(obj:41)
t_x_427                                             1 	(obj:8)
t_x_428                                             1 	(obj:21)
t_x_429                                             1 	(obj:0)
t_x_430                                             1 	(obj:21)
t_x_433                                             1 	(obj:29)
t_x_434                                             1 	(obj:6)
t_x_436                                             1 	(obj:32)
t_x_439                                             1 	(obj:49)
t_x_440                                             1 	(obj:5)
t_x_442                                             1 	(obj:35)
t_x_444                                             1 	(obj:10)
t_x_445                                             1 	(obj:4)
t_x_447                                             1 	(obj:29)
t_x_448                                             1 	(obj:14)
t_x_455                                             1 	(obj:25)
t_x_459                                             1 	(obj:35)
t_x_462                                             1 	(obj:33)
t_x_463                                             1 	(obj:16)
t_x_470                                             1 	(obj:35)
t_x_473                                             1 	(obj:1)
t_x_480                                             1 	(obj:6)
t_x_481                                             1 	(obj:7)
t_x_483                                             1 	(obj:13)
t_x_491                                             1 	(obj:27)
t_x_493                                             1 	(obj:5)
t_x_495                                             1 	(obj:0)
t_x_500                                             1 	(obj:9)
t_x_502                                             1 	(obj:13)
t_x_506                                             1 	(obj:51)
t_x_509                                             1 	(obj:4)
t_x_512                                             1 	(obj:1)
t_x_515                                             1 	(obj:56)
t_x_522                                             1 	(obj:18)
t_x_530                                             1 	(obj:9)
t_x_531                                             1 	(obj:8)
t_x_534                                             1 	(obj:25)
t_x_536                                             1 	(obj:36)
t_x_539                                             1 	(obj:20)
t_x_540                                             1 	(obj:16)
t_x_550                                             1 	(obj:23)
t_x_558                                             1 	(obj:18)
t_x_567                                             1 	(obj:22)
t_x_569                                             1 	(obj:19)
t_x_571                                             1 	(obj:1)
t_x_574                                             1 	(obj:20)
t_x_576                                             1 	(obj:1)
t_x_577                                             1 	(obj:2)
t_x_578                                             1 	(obj:8)
t_x_581                                             1 	(obj:8)
t_x_584                                             1 	(obj:24)
t_x_586                                             1 	(obj:29)
t_x_590                                             1 	(obj:29)
t_x_592                                             1 	(obj:42)
t_x_593                                             1 	(obj:14)
t_x_595                                             1 	(obj:6)
t_x_597                                             1 	(obj:9)
t_x_599                                             1 	(obj:14)
t_x_605                                             1 	(obj:13)
t_x_610                                             1 	(obj:4)
t_x_620                                             1 	(obj:11)
t_x_621                                             1 	(obj:7)
t_x_625                                             1 	(obj:33)
t_x_636                                             1 	(obj:12)
t_x_638                                             1 	(obj:20)
t_x_640                                             1 	(obj:25)
t_x_642                                             1 	(obj:29)
t_x_644                                             1 	(obj:32)
t_x_650                                             1 	(obj:20)
t_x_652                                             1 	(obj:2)
t_x_654                                             1 	(obj:19)
t_x_661                                             1 	(obj:22)
t_x_662                                             1 	(obj:7)
t_x_663                                             1 	(obj:42)
t_x_675                                             1 	(obj:5)
t_x_681                                             1 	(obj:6)
t_x_682                                             1 	(obj:1)
t_x_685                                             1 	(obj:37)
t_x_687                                             1 	(obj:25)
t_x_688                                             1 	(obj:0)
t_x_689                                             1 	(obj:15)
t_x_690                                             1 	(obj:1)
t_x_694                                             1 	(obj:28)
t_x_695                                             1 	(obj:37)
t_x_698                                             1 	(obj:54)
t_x_699                                             1 	(obj:70)
t_x_706                                             1 	(obj:8)
t_x_708                                             1 	(obj:26)
t_x_712                                             1 	(obj:28)
t_x_713                                             1 	(obj:26)
t_x_717                                             1 	(obj:34)
t_x_724                                             1 	(obj:10)
t_x_725                                             1 	(obj:22)
t_x_729                                             1 	(obj:21)
t_x_730                                             1 	(obj:47)
t_x_735                                             1 	(obj:19)
t_x_741                                             1 	(obj:10)
t_x_750                                             1 	(obj:33)
t_x_752                                             1 	(obj:8)
t_x_754                                             1 	(obj:28)
t_x_759                                             1 	(obj:30)
t_x_764                                             1 	(obj:7)
t_x_766                                             1 	(obj:11)
t_x_772                                             1 	(obj:2)
t_x_773                                             1 	(obj:0)
t_x_776                                             1 	(obj:3)
t_x_778                                             1 	(obj:0)
t_x_788                                             1 	(obj:10)
t_x_789                                             1 	(obj:1)
t_x_793                                             1 	(obj:6)
t_x_796                                             1 	(obj:33)
t_x_797                                             1 	(obj:14)
t_x_798                                             1 	(obj:7)
t_x_802                                             1 	(obj:10)
t_x_804                                             1 	(obj:63)
t_x_806                                             1 	(obj:20)
t_x_809                                             1 	(obj:19)
t_x_813                                             1 	(obj:11)
t_x_816                                             1 	(obj:6)
t_x_824                                             1 	(obj:12)
t_x_827                                             1 	(obj:29)
t_x_829                                             1 	(obj:12)
t_x_834                                             1 	(obj:6)
t_x_835                                             1 	(obj:7)
t_x_839                                             1 	(obj:2)
t_x_844                                             1 	(obj:22)
t_x_845                                             1 	(obj:51)
t_x_846                                             1 	(obj:17)
t_x_851                                             1 	(obj:14)
t_x_855                                             1 	(obj:5)
t_x_857                                             1 	(obj:5)
t_x_858                                             1 	(obj:27)
t_x_860                                             1 	(obj:23)
t_x_863                                             1 	(obj:10)
t_x_867                                             1 	(obj:40)
t_x_870                                             1 	(obj:30)
t_x_871                                             1 	(obj:23)
t_x_873                                             1 	(obj:18)
t_x_874                                             1 	(obj:0)
t_x_875                                             1 	(obj:10)
t_x_877                                             1 	(obj:42)
t_x_878                                             1 	(obj:10)
t_x_883                                             1 	(obj:31)
t_x_884                                             1 	(obj:1)
t_x_885                                             1 	(obj:8)
t_x_889                                             1 	(obj:21)
t_x_893                                             1 	(obj:4)
t_x_895                                             1 	(obj:37)
t_x_899                                             1 	(obj:14)
t_x_912                                             1 	(obj:24)
t_x_917                                             1 	(obj:5)
t_x_928                                             1 	(obj:8)
t_x_931                                             1 	(obj:18)
t_x_932                                             1 	(obj:0)
t_x_944                                             1 	(obj:30)
t_x_949                                             1 	(obj:39)
t_x_956                                             1 	(obj:8)
t_x_962                                             1 	(obj:2)
t_x_963                                             1 	(obj:17)
t_x_964                                             1 	(obj:17)
t_x_966                                             1 	(obj:16)
t_x_967                                             1 	(obj:52)
t_x_971                                             1 	(obj:20)
t_x_973                                             1 	(obj:1)
t_x_980                                             1 	(obj:13)
t_x_986                                             1 	(obj:4)
t_x_992                                             1 	(obj:0)
t_x_1007                                            1 	(obj:26)
t_x_1010                                            1 	(obj:0)
t_x_1011                                            1 	(obj:19)
t_x_1014                                            1 	(obj:27)
t_x_1015                                            1 	(obj:14)
t_x_1016                                            1 	(obj:9)
t_x_1027                                            1 	(obj:47)
t_x_1033                                            1 	(obj:28)
t_x_1034                                            1 	(obj:29)
t_x_1037                                            1 	(obj:31)
t_x_1041                                            1 	(obj:26)
t_x_1042                                            1 	(obj:42)
t_x_1044                                            1 	(obj:34)
t_x_1046                                            1 	(obj:18)
t_x_1047                                            1 	(obj:38)
t_x_1049                                            1 	(obj:29)
t_x_1052                                            1 	(obj:4)
t_x_1077                                            1 	(obj:38)
t_x_1082                                            1 	(obj:1)
t_x_1084                                            1 	(obj:3)
t_x_1086                                            1 	(obj:39)
t_x_1096                                            1 	(obj:8)
t_x_1099                                            1 	(obj:26)
t_x_1101                                            1 	(obj:7)
t_x_1102                                            1 	(obj:33)
t_x_1105                                            1 	(obj:27)
t_x_1107                                            1 	(obj:0)
t_x_1117                                            1 	(obj:7)
t_x_1119                                            1 	(obj:17)
t_x_1122                                            1 	(obj:5)
t_x_1126                                            1 	(obj:29)
t_x_1129                                            1 	(obj:20)
t_x_1130                                            1 	(obj:44)
t_x_1132                                            1 	(obj:12)
t_x_1135                                            1 	(obj:48)
t_x_1143                                            1 	(obj:13)
t_x_1144                                            1 	(obj:34)
t_x_1146                                            1 	(obj:29)
t_x_1147                                            1 	(obj:0)
t_x_1154                                            1 	(obj:21)
t_x_1158                                            1 	(obj:21)
t_x_1165                                            1 	(obj:20)
t_x_1168                                            1 	(obj:6)
t_x_1171                                            1 	(obj:2)
t_x_1174                                            1 	(obj:36)
t_x_1179                                            1 	(obj:21)
t_x_1181                                            1 	(obj:14)
t_x_1183                                            1 	(obj:16)
t_x_1185                                            1 	(obj:8)
t_x_1191                                            1 	(obj:12)
t_x_1198                                            1 	(obj:41)
t_x_1200                                            1 	(obj:11)
t_x_1203                                            1 	(obj:18)
t_x_1209                                            1 	(obj:15)
t_x_1214                                            1 	(obj:12)
t_x_1215                                            1 	(obj:14)
t_x_1216                                            1 	(obj:3)
t_x_1219                                            1 	(obj:28)
t_x_1225                                            1 	(obj:48)
t_x_1230                                            1 	(obj:35)
t_x_1231                                            1 	(obj:13)
t_x_1233                                            1 	(obj:12)
t_x_1239                                            1 	(obj:17)
t_x_1241                                            1 	(obj:4)
t_x_1246                                            1 	(obj:19)
t_x_1248                                            1 	(obj:4)
t_x_1250                                            1 	(obj:6)
t_x_1257                                            1 	(obj:24)
t_x_1260                                            1 	(obj:14)
t_x_1262                                            1 	(obj:18)
t_x_1269                                            1 	(obj:6)
t_x_1270                                            1 	(obj:0)
t_x_1271                                            1 	(obj:7)
t_x_1273                                            1 	(obj:22)
t_x_1277                                            1 	(obj:13)
t_x_1284                                            1 	(obj:13)
t_x_1288                                            1 	(obj:11)
t_x_1291                                            1 	(obj:34)
t_x_1297                                            1 	(obj:35)
t_x_1298                                            1 	(obj:31)
t_x_1299                                            1 	(obj:0)
t_x_1300                                            1 	(obj:45)
t_x_1304                                            1 	(obj:23)
t_x_1305                                            1 	(obj:1)
t_x_1312                                            1 	(obj:32)
t_x_1313                                            1 	(obj:1)
t_x_1314                                            1 	(obj:16)
t_x_1315                                            1 	(obj:68)
t_x_1317                                            1 	(obj:3)
t_x_1320                                            1 	(obj:30)
t_x_1324                                            1 	(obj:39)
t_x_1332                                            1 	(obj:11)
t_x_1333                                            1 	(obj:29)
t_x_1337                                            1 	(obj:4)
t_x_1338                                            1 	(obj:28)
t_x_1340                                            1 	(obj:24)
t_x_1343                                            1 	(obj:25)
t_x_1348                                            1 	(obj:34)
t_x_1350                                            1 	(obj:2)
t_x_1353                                            1 	(obj:39)
t_x_1356                                            1 	(obj:9)
t_x_1360                                            1 	(obj:5)
t_x_1361                                            1 	(obj:21)
t_x_1368                                            1 	(obj:1)
t_x_1369                                            1 	(obj:13)
t_x_1371                                            1 	(obj:5)
t_x_1374                                            1 	(obj:13)
t_x_1378                                            1 	(obj:16)
t_x_1381                                            1 	(obj:22)
t_x_1384                                            1 	(obj:27)
t_x_1386                                            1 	(obj:10)
t_x_1388                                            1 	(obj:0)
t_x_1389                                            1 	(obj:66)
t_x_1390                                            1 	(obj:31)
t_x_1395                                            1 	(obj:11)
t_x_1406                                            1 	(obj:28)
t_x_1407                                            1 	(obj:25)
t_x_1416                                            1 	(obj:22)
t_x_1418                                            1 	(obj:16)
t_x_1420                                            1 	(obj:10)
t_x_1421                                            1 	(obj:3)
t_x_1422                                            1 	(obj:0)
t_x_1428                                            1 	(obj:14)
t_x_1429                                            1 	(obj:2)
t_x_1439                                            1 	(obj:37)
t_x_1440                                            1 	(obj:0)
t_x_1447                                            1 	(obj:13)
t_x_1450                                            1 	(obj:35)
t_x_1454                                            1 	(obj:2)
t_x_1455                                            1 	(obj:21)
t_x_1457                                            1 	(obj:3)
t_x_1463                                            1 	(obj:17)
t_x_1464                                            1 	(obj:15)
t_x_1465                                            1 	(obj:27)
t_x_1468                                            1 	(obj:5)
t_x_1473                                            1 	(obj:15)
t_x_1474                                            1 	(obj:11)
t_x_1478                                            1 	(obj:7)
t_x_1492                                            1 	(obj:16)
t_x_1493                                            1 	(obj:8)
t_x_1494                                            1 	(obj:13)
t_x_1496                                            1 	(obj:4)
t_x_1498                                            1 	(obj:19)
t_x_1500                                            1 	(obj:18)
t_x_1502                                            1 	(obj:11)
t_x_1503                                            1 	(obj:24)
t_x_1505                                            1 	(obj:21)
t_x_1507                                            1 	(obj:7)
t_x_1508                                            1 	(obj:12)
t_x_1510                                            1 	(obj:6)
t_x_1512                                            1 	(obj:25)
t_x_1514                                            1 	(obj:14)
t_x_1515                                            1 	(obj:8)
t_x_1517                                            1 	(obj:43)
t_x_1522                                            1 	(obj:22)
t_x_1532                                            1 	(obj:12)
t_x_1538                                            1 	(obj:8)
t_x_1548                                            1 	(obj:34)
t_x_1553                                            1 	(obj:1)
t_x_1557                                            1 	(obj:11)
t_x_1565                                            1 	(obj:9)
t_x_1568                                            1 	(obj:12)
t_x_1570                                            1 	(obj:15)
t_x_1577                                            1 	(obj:3)
t_x_1578                                            1 	(obj:7)
t_x_1580                                            1 	(obj:19)
t_x_1583                                            1 	(obj:11)
t_x_1585                                            1 	(obj:7)
t_x_1588                                            1 	(obj:29)
t_x_1593                                            1 	(obj:14)
t_x_1598                                            1 	(obj:14)
t_x_1599                                            1 	(obj:18)
t_x_1600                                            1 	(obj:14)
t_x_1602                                            1 	(obj:17)
t_x_1608                                            1 	(obj:25)
t_x_1609                                            1 	(obj:1)
t_x_1610                                            1 	(obj:0)
t_x_1616                                            1 	(obj:33)
t_x_1617                                            1 	(obj:8)
t_x_1618                                            1 	(obj:38)
t_x_1625                                            1 	(obj:15)
t_x_1627                                            1 	(obj:24)
t_x_1629                                            1 	(obj:0)
t_x_1633                                            1 	(obj:16)
t_x_1634                                            1 	(obj:31)
t_x_1635                                            1 	(obj:31)
t_x_1637                                            1 	(obj:23)
t_x_1639                                            1 	(obj:32)
t_x_1642                                            1 	(obj:36)
t_x_1644                                            1 	(obj:0)
t_x_1654                                            1 	(obj:6)
t_x_1655                                            1 	(obj:18)
t_x_1657                                            1 	(obj:12)
t_x_1659                                            1 	(obj:31)
t_x_1665                                            1 	(obj:29)
t_x_1666                                            1 	(obj:5)
t_x_1670                                            1 	(obj:35)
t_x_1674                                            1 	(obj:30)
t_x_1677                                            1 	(obj:35)
t_x_1678                                            1 	(obj:2)
t_x_1685                                            1 	(obj:0)
t_x_1687                                            1 	(obj:32)
t_x_1691                                            1 	(obj:32)
t_x_1708                                            1 	(obj:17)
t_x_1721                                            1 	(obj:12)
t_x_1724                                            1 	(obj:27)
t_x_1728                                            1 	(obj:24)
t_x_1729                                            1 	(obj:1)
t_x_1733                                            1 	(obj:0)
t_x_1735                                            1 	(obj:12)
t_x_1743                                            1 	(obj:2)
t_x_1746                                            1 	(obj:19)
t_x_1753                                            1 	(obj:35)
t_x_1758                                            1 	(obj:14)
t_x_1759                                            1 	(obj:4)
t_x_1763                                            1 	(obj:30)
t_x_1765                                            1 	(obj:8)
t_x_1766                                            1 	(obj:8)
t_x_1768                                            1 	(obj:7)
t_x_1771                                            1 	(obj:33)
t_x_1772                                            1 	(obj:14)
t_x_1773                                            1 	(obj:6)
t_x_1775                                            1 	(obj:11)
t_x_1780                                            1 	(obj:3)
t_x_1785                                            1 	(obj:32)
t_x_1788                                            1 	(obj:19)
t_x_1789                                            1 	(obj:7)
t_x_1791                                            1 	(obj:9)
t_x_1802                                            1 	(obj:7)
t_x_1805                                            1 	(obj:53)
t_x_1807                                            1 	(obj:0)
t_x_1812                                            1 	(obj:13)
t_x_1815                                            1 	(obj:18)
t_x_1817                                            1 	(obj:3)
t_x_1823                                            1 	(obj:27)
t_x_1824                                            1 	(obj:16)
t_x_1826                                            1 	(obj:4)
t_x_1828                                            1 	(obj:8)
t_x_1830                                            1 	(obj:9)
t_x_1832                                            1 	(obj:20)
t_x_1834                                            1 	(obj:13)
t_x_1836                                            1 	(obj:18)
t_x_1845                                            1 	(obj:3)
t_x_1846                                            1 	(obj:26)
t_x_1850                                            1 	(obj:56)
t_x_1851                                            1 	(obj:15)
t_x_1853                                            1 	(obj:24)
t_x_1860                                            1 	(obj:20)
t_x_1868                                            1 	(obj:16)
t_x_1870                                            1 	(obj:16)
t_x_1878                                            1 	(obj:13)
t_x_1880                                            1 	(obj:4)
t_x_1882                                            1 	(obj:13)
t_x_1884                                            1 	(obj:15)
t_x_1889                                            1 	(obj:31)
t_x_1891                                            1 	(obj:34)
t_x_1894                                            1 	(obj:21)
t_x_1895                                            1 	(obj:21)
t_x_1897                                            1 	(obj:4)
t_x_1898                                            1 	(obj:2)
t_x_1899                                            1 	(obj:26)
t_x_1904                                            1 	(obj:22)
t_x_1906                                            1 	(obj:50)
t_x_1907                                            1 	(obj:4)
t_x_1913                                            1 	(obj:6)
t_x_1915                                            1 	(obj:0)
t_x_1916                                            1 	(obj:2)
t_x_1919                                            1 	(obj:12)
t_x_1922                                            1 	(obj:3)
t_x_1923                                            1 	(obj:13)
t_x_1936                                            1 	(obj:46)
t_x_1937                                            1 	(obj:9)
t_x_1944                                            1 	(obj:5)
t_x_1948                                            1 	(obj:12)
t_x_1951                                            1 	(obj:6)
t_x_1952                                            1 	(obj:24)
t_x_1953                                            1 	(obj:6)
t_x_1956                                            1 	(obj:16)
t_x_1960                                            1 	(obj:29)
t_x_1983                                            1 	(obj:32)
t_x_1986                                            1 	(obj:17)
t_x_1998                                            1 	(obj:17)
